%chk=acetaldehyde.chk
%mem=72GB
%nprocshared=16
# opt freq M062X/6-31G*

acetaldehyde created by GaussianPrep

0 1
C  0.240326  0.413829  0.000001
O  1.219313  -0.288679  -0.0
H  0.343887  1.518668  -0.000001
C  -1.168223  -0.135556  0.000001
H  -1.917481  0.657732  0.000065
H  -1.306786  -0.768245  -0.881565
H  -1.306745  -0.768357  0.881492

