
%chk=claisen_ts_QRCR.chk
%nproc=4
%mem=8GB
# opt freq b3lyp/6-31g(d)

claisen_ts_QRCR

0 1
 C  -1.56830900   0.73316800  -0.31098400
 C  -1.29105700  -0.45105500   0.26483900
 O  -0.40602600  -1.33445600  -0.23722100
 C   1.14457000  -0.93928400   0.16103400
 C   1.36870200   0.42770400  -0.30179600
 C   0.77967900   1.44929500   0.34023600
 H  -2.24789600   1.43839800   0.15779400
 H  -1.20440000   0.96868900  -1.31199400
 H  -1.66766300  -0.66415100   1.27281200
 H   1.67939400  -1.72990600  -0.35932000
 H   1.18554000  -1.07249500   1.25181600
 H   1.70149600   0.56003400  -1.32967500
 H   0.70102700   2.44294500  -0.09269800
 H   0.43320500   1.35617500   1.37105600

