
%chk=acetaldehyde_QRC.chk
%nproc=1
%mem=4GB
# opt freq B3LYP/def2tzvp empiricaldispersion=GD3BJ

acetaldehyde_QRC

0 1
 H   0.33785000   1.51500900  -0.12297600
 C   0.23858600   0.40899400  -0.02701200
 C  -1.16763100  -0.13495700   0.00900100
 O   1.22090300  -0.28556300   0.02100300
 H  -1.91311300   0.65951400   0.15300400
 H  -1.25183700  -0.89311600   0.80424400
 H  -1.36585000  -0.64112400  -0.95423300

