
$molecule
0 1
 H  -0.33870204  -1.51510269  -0.12358792
 C  -0.23894259  -0.40902705  -0.02790613
 C   1.16805249   0.13477056   0.00810061
 O  -1.22119751   0.28573209   0.02250157
 H   1.91392009  -0.65959774   0.15359673
 H   1.25074983   0.89288450   0.80419904
 H   1.36895283   0.64149811  -0.95418733
$end

$rem
   JOBTYPE opt
   METHOD B3LYP
   BASIS def2-TZVP
$end

@@@

$molecule
   read
$end

$rem
   JOBTYPE freq
   METHOD B3LYP
   BASIS def2-TZVP
$end
