
! pal8 B3LYP def2-tzvp D3BJ  Opt Freq

# acetaldehyde_QRC

* xyz 0 1
 H   0.33790250   1.51535410  -0.12376920
 C   0.23874870   0.40902130  -0.02782630
 C  -1.16778430  -0.13504270   0.00820120
 O   1.22128130  -0.28562010   0.02235700
 H  -1.91317700   0.65972730   0.15322360
 H  -1.25080050  -0.89343340   0.80434940
 H  -1.36725980  -0.64125450  -0.95454620
*