
! pal8 opt freq b3lyp 6-31G(d)

# claisen_ts_QRCR

* xyz 0 1
 C  -1.36347090   0.83571390  -0.26951830
 C  -1.29328830  -0.49393210   0.26010870
 O  -0.61478850  -1.38440980  -0.26343350
 C   1.42538790  -0.86160260   0.20208550
 C   1.37954750   0.39685740  -0.30273620
 C   0.55513570   1.39981530   0.30324730
 H  -2.04348310   1.54741650   0.19735930
 H  -1.24390200   0.93702870  -1.35360820
 H  -1.68876130  -0.62574090   1.29191260
 H   1.85223250  -1.69297310  -0.34903860
 H   1.16403460  -1.06800630   1.24477020
 H   1.68315920   0.55496370  -1.33659200
 H   0.55729540   2.40656640  -0.10945550
 H   0.45766470   1.38044550   1.39457950
*